p tw 20 53
0 1
0 4
0 7
0 3
1 6
1 19
2 3
2 12
2 14
2 10
2 16
2 13
2 9
3 8
3 7
3 19
3 10
4 5
4 9
4 7
4 10
4 15
5 12
5 7
5 15
5 16
5 14
6 7
6 16
6 8
6 15
7 8
7 11
7 15
7 17
7 13
7 12
7 14
8 9
8 10
8 14
8 18
8 16
9 13
9 18
9 15
9 16
9 19
10 11
10 17
10 13
14 19
17 18
